SIZE = 17,
483,426,364,745,246,289,528,332,202,157,349,237,542,472,121,685,
633,495,145,57,390,154,249,63,228,29,435,383,254,336,267,
402,391,202,257,352,232,351,661,34,578,169,287,153,120,
182,199,444,353,505,262,360,289,638,196,191,29,476,
268,184,74,243,150,336,105,466,326,211,142,108,
448,239,123,165,140,207,53,240,420,518,383,
250,264,77,91,309,95,227,439,96,112,
282,324,292,110,324,208,567,35,61,
555,338,259,437,175,27,36,372,
196,134,421,572,83,390,80,
105,314,412,189,55,488,
240,154,346,236,530,
297,70,297,329,
68,301,150,
84,47,
238,
NOTE = 